problems/csplib-prob049/set_partition_simple-models/noch/O0/minion/model_2_1-16-solution000001.solution
language Essence 1.3

letting setA be {1, 2, 7, 8, 11, 12, 13, 14}
letting setB be {3, 4, 5, 6, 9, 10, 15, 16}
