problems/csplib-prob049/set_partition_simple-models/noch/O2/minion/model_2_1-16-solution000001.eprime-solution
language ESSENCE' 1.0

letting setA_Explicit be [1, 2, 7, 8, 11, 12, 13, 14; int(1..8)]
letting setB_Occurrence be
        [false, false, true, true, true, true, false, false, true, true, false, false, false, false, true, true;
             int(1..16)]
